9
33
85
80
79
73
90
23
41
40
21
81
83
13
54
27
46
52
17
10
35
55
60
32
75
92
29
69
57
5
86
31
20
51
47
28
72
94
62
1
22
12
42
76
96
95
89
97
19
44
37
58
66
3
71
67
8
45
48
14
49
56
61
59
39
65
11
77
26
74
68
36
64
70
2
15
78
88
7
53
38
87
0
6
16
25
82
98
43
18
4
30
91
84
24
99
63
93
50
34
